SystemName       tBN80-tricloro
SystemLabel      tBN80-tricloro-7
NumberOfAtoms    140 
NumberOfSpecies  6
%block ChemicalSpeciesLabel
 1   6    C_lda
 2   17   Cl_lda
 3   8    O_lda
 4   1    H_lda
 5   7    N_lda
 6   5    B_lda
%endblock ChemicalSpeciesLabel

LatticeConstant 17.1596  Ang
%block LatticeVectors
2.0000   0.000   0.000
0.0000   2.000   0.000
0.0000   0.000   1.000
%endblock LatticeVectors

%block kgrid_Monkhorst_Pack
 3   0   0   0.0
 0   3   0   0.0
 0   0   3   0.0
%endblock kgrid_Monkhorst_Pack

%block BandLines
1  0.000  0.000  0.000  \Gamma
30 0.000  0.000  1.000  X
%endblock BandLines

AtomicCoordinatesFormat NotScaledCartesianAng
AtomCoorFormatOut   NotScaledCartesianAng
%block AtomicCoordinatesAndAtomicSpecies
        -2.889235     8.558295     2.580785         2
        -0.035481     3.971718     2.537356         2
        -2.379936     5.687620     2.595487         3
         2.194776     8.516808     2.504388         3
        -1.338632     6.344314     2.564544         1
        -1.345544     7.822094     2.553791         1
        -0.002583     5.688724     2.535536         1
        -0.182208     8.545120     2.527565         1
         1.153246     6.401273     2.513162         1
         1.144656     7.867748     2.513397         1
        -0.159475    10.249836     2.515896         2
         2.151263     5.914760     2.496309         4
         3.087834     1.235378     1.811783         5
         1.293223     2.996553     1.812214         5
        -1.218757     3.002135     1.812571         5
        -3.050321     1.279848     1.811951         5
        -3.088029    -1.235529     1.811686         5
        -1.293287    -2.996597     1.812177         5
         1.218855    -3.002205     1.812677         5
         3.050230    -1.279936     1.812091         5
         3.009029     1.205495     3.259658         6
         2.374194     2.304439     3.981574         5
         1.267229     2.929611     3.260636         6
         0.038433     3.233846     3.982367         5
        -1.194386     2.937674     3.260840         6
        -2.308155     2.327265     3.981850         5
        -2.972638     1.247114     3.258534         6
        -3.309661     0.025872     3.980910         5
        -3.009181    -1.205576     3.259558         6
        -2.374304    -2.304485     3.981503         5
        -1.267258    -2.929650     3.260613         6
        -0.038336    -3.233841     3.982345         5
         1.193966    -2.937948     3.260958         6
         2.308282    -2.327212     3.981982         5
         2.972480    -1.247225     3.258613         6
         3.309456    -0.025982     3.981010         5
         2.319524     2.247381     5.429469         6
         0.037667     3.158356     5.429041         6
        -2.257009     2.271127     5.429695         6
        -3.239812     0.025737     5.428581         6
        -2.319576    -2.247398     5.429445         6
        -0.037797    -3.158369     5.429027         6
         2.256672    -2.271325     5.429768         6
         3.239638    -0.025773     5.428695         6
         3.087834     1.235378     6.101683         5
         1.293223     2.996553     6.102114         5
        -1.218757     3.002135     6.102471         5
        -3.050321     1.279848     6.101851         5
        -3.088029    -1.235529     6.101586         5
        -1.293287    -2.996597     6.102077         5
         1.218855    -3.002205     6.102577         5
         3.050230    -1.279936     6.101991         5
         3.009029     1.205495     7.549558         6
         2.374194     2.304439     8.271474         5
         1.267229     2.929611     7.550536         6
         0.038433     3.233846     8.272266         5
        -1.194386     2.937674     7.550740         6
        -2.308155     2.327265     8.271749         5
        -2.972638     1.247114     7.548434         6
        -3.309661     0.025872     8.270810         5
        -3.009181    -1.205576     7.549458         6
        -2.374304    -2.304485     8.271402         5
        -1.267258    -2.929650     7.550513         6
        -0.038336    -3.233841     8.272245         5
         1.193966    -2.937948     7.550858         6
         2.308282    -2.327212     8.271882         5
         2.972480    -1.247225     7.548513         6
         3.309456    -0.025982     8.270910         5
         2.319524     2.247381     9.719369         6
         0.037667     3.158356     9.718941         6
        -2.257009     2.271127     9.719595         6
        -3.239812     0.025737     9.718481         6
        -2.319576    -2.247398     9.719345         6
        -0.037797    -3.158369     9.718927         6
         2.256672    -2.271325     9.719667         6
         3.239638    -0.025773     9.718596         6
         3.087834     1.235378    -6.768017         5
         1.293223     2.996553    -6.767586         5
        -1.218757     3.002135    -6.767229         5
        -3.050321     1.279848    -6.767848         5
        -3.088029    -1.235529    -6.768114         5
        -1.293287    -2.996597    -6.767623         5
         1.218855    -3.002205    -6.767123         5
         3.050230    -1.279936    -6.767709         5
         3.009029     1.205495    -5.320142         6
         2.374194     2.304439    -4.598226         5
         1.267229     2.929611    -5.319163         6
         0.038433     3.233846    -4.597433         5
        -1.194386     2.937674    -5.318960         6
        -2.308155     2.327265    -4.597950         5
        -2.972638     1.247114    -5.321266         6
        -3.309661     0.025872    -4.598889         5
        -3.009181    -1.205576    -5.320242         6
        -2.374304    -2.304485    -4.598297         5
        -1.267258    -2.929650    -5.319187         6
        -0.038336    -3.233841    -4.597455         5
         1.193966    -2.937948    -5.318842         6
         2.308282    -2.327212    -4.597817         5
         2.972480    -1.247225    -5.321187         6
         3.309456    -0.025982    -4.598790         5
         2.319524     2.247381    -3.150331         6
         0.037667     3.158356    -3.150759         6
        -2.257009     2.271127    -3.150105         6
        -3.239812     0.025737    -3.151218         6
        -2.319576    -2.247398    -3.150355         6
        -0.037797    -3.158369    -3.150773         6
         2.256672    -2.271325    -3.150032         6
         3.239638    -0.025773    -3.151104         6
         3.087834     1.235378    -2.478117         5
         1.293223     2.996553    -2.477685         5
        -1.218757     3.002135    -2.477329         5
        -3.050321     1.279848    -2.477949         5
        -3.088029    -1.235529    -2.478214         5
        -1.293287    -2.996597    -2.477723         5
         1.218855    -3.002205    -2.477222         5
         3.050230    -1.279936    -2.477808         5
         3.009029     1.205495    -1.030241         6
         2.374194     2.304439    -0.308326         5
         1.267229     2.929611    -1.029263         6
         0.038433     3.233846    -0.307533         5
        -1.194386     2.937674    -1.029060         6
        -2.308155     2.327265    -0.308051         5
        -2.972638     1.247114    -1.031366         6
        -3.309661     0.025872    -0.308990         5
        -3.009181    -1.205576    -1.030342         6
        -2.374304    -2.304485    -0.308397         5
        -1.267258    -2.929650    -1.029287         6
        -0.038336    -3.233841    -0.307554         5
         1.193966    -2.937948    -1.028942         6
         2.308282    -2.327212    -0.307918         5
         2.972480    -1.247225    -1.031287         6
         3.309456    -0.025982    -0.308889         5
         2.319524     2.247381     1.139569         6
         0.037667     3.158356     1.139141         6
        -2.257009     2.271127     1.139795         6
        -3.239812     0.025737     1.138681         6
        -2.319576    -2.247398     1.139545         6
        -0.037797    -3.158369     1.139128         6
         2.256672    -2.271325     1.139868         6
         3.239638    -0.025773     1.138797         6   
%endblock AtomicCoord  inatesAndAtomicSpecies
                    
                       
                       
PAO.BasisSize      DZP
PAO.EnergyShift    0.03 eV
MD.TypeOfRun       CG  
MD.NumCGsteps      1000
MaxSCFIterations   150
MD.MaxForceTol     0.05 eV/Ang
MeshCutoff         200.0 Ry
DM.MixingWeight    0.10
DM.NumberPulay     3   
WriteCoorXmol          
WriteMullikenPop   1   
                       
SpinPolarized    true
                       
DM.UseSaveDM     true   
UseSaveData      true 
MD.UseSaveXV     true
MD.UseSaveCG     true

WriteCoorXmol       T
WriteMDXmol         T
WriteMDhistory      T

XC.functional     LDA
XC.authors        CA


%block LocalDensityOfStates
 -6.68  -6.43   eV
%endblock LocalDensityOfStates


%block ProjectedDensityOfStates
  -20.0  20.0   0.05  600 eV
%endblock ProjectedDensityOfStates

SolutionMethod diagon
ElectronicTemperature  80 meV
